certificates/rado_a11_c167_N22.drat
-20 -22 0
d -20 -15 -22 0
15 16 -22 0
16 -21 -22 0
-16 -22 0
-22 0
16 0
-7 0
15 0
-13 0
-17 0
-18 0
-14 0
-6 0
2 0
5 0
1 0
9 0
20 0
4 0
19 0
0
